NAME : 3C_20_50-01.12720.tour
COMMENT : Cost = 0_12720
COMMENT : Found by LKH [Keld Helsgaun] Thu Sep 14 11:32:12 2017
TYPE : TOUR
DIMENSION : 31
TOUR_SECTION
1
16
15
22
10
24
5
23
20
12
30
11
21
28
18
17
27
19
9
8
25
13
31
6
7
29
14
3
26
2
4
-1
EOF
